p cnf 200 1110
-101 -71 0
-101 58 0
-101 39 0
-101 61 0
-101 3 0
-101 -9 0
-101 -86 0
-101 -34 0
-101 89 0
-101 -94 0
101 71 -58 -39 -61 -3 9 86 34 -89 94 0
-102 -58 0
-102 25 0
-102 83 0
-102 71 0
-102 99 0
-102 74 0
-102 -16 0
-102 -1 0
-102 89 0
-102 43 0
102 58 -25 -83 -71 -99 -74 16 1 -89 -43 0
-103 80 0
-103 -19 0
-103 57 0
-103 -100 0
-103 45 0
-103 -96 0
-103 5 0
-103 -29 0
-103 -47 0
-103 -95 0
103 -80 19 -57 100 -45 96 -5 29 47 95 0
-104 -27 0
-104 59 0
-104 28 0
-104 82 0
-104 23 0
-104 43 0
-104 -97 0
-104 -94 0
-104 -56 0
-104 96 0
104 27 -59 -28 -82 -23 -43 97 94 56 -96 0
-105 27 0
-105 -8 0
-105 -66 0
-105 -20 0
-105 50 0
-105 14 0
-105 34 0
-105 -32 0
-105 92 0
-105 -98 0
105 -27 8 66 20 -50 -14 -34 32 -92 98 0
-106 20 0
-106 11 0
-106 74 0
-106 66 0
-106 -80 0
-106 -86 0
-106 -41 0
-106 30 0
-106 57 0
-106 -63 0
106 -20 -11 -74 -66 80 86 41 -30 -57 63 0
-107 -26 0
-107 53 0
-107 8 0
-107 12 0
-107 -27 0
-107 76 0
-107 85 0
-107 32 0
-107 -47 0
-107 16 0
107 26 -53 -8 -12 27 -76 -85 -32 47 -16 0
-108 -76 0
-108 -6 0
-108 54 0
-108 -7 0
-108 5 0
-108 8 0
-108 42 0
-108 -43 0
-108 81 0
-108 13 0
108 76 6 -54 7 -5 -8 -42 43 -81 -13 0
-109 -57 0
-109 -93 0
-109 -6 0
-109 -31 0
-109 -37 0
-109 -4 0
-109 50 0
-109 17 0
-109 -63 0
-109 71 0
109 57 93 6 31 37 4 -50 -17 63 -71 0
-110 8 0
-110 -1 0
-110 -15 0
-110 -29 0
-110 12 0
-110 90 0
-110 39 0
-110 -80 0
-110 -75 0
-110 82 0
110 -8 1 15 29 -12 -90 -39 80 75 -82 0
101 102 103 104 105 106 107 108 109 110 0
-111 -73 0
-111 63 0
-111 -8 0
-111 -24 0
-111 -4 0
-111 32 0
-111 9 0
-111 90 0
-111 -47 0
-111 85 0
111 73 -63 8 24 4 -32 -9 -90 47 -85 0
-112 -77 0
-112 78 0
-112 -38 0
-112 -84 0
-112 -47 0
-112 88 0
-112 22 0
-112 59 0
-112 -13 0
-112 -32 0
112 77 -78 38 84 47 -88 -22 -59 13 32 0
-113 68 0
-113 74 0
-113 69 0
-113 -36 0
-113 -82 0
-113 -73 0
-113 -84 0
-113 58 0
-113 -2 0
-113 31 0
113 -68 -74 -69 36 82 73 84 -58 2 -31 0
-114 -62 0
-114 -9 0
-114 -70 0
-114 -47 0
-114 92 0
-114 80 0
-114 86 0
-114 -94 0
-114 96 0
-114 66 0
114 62 9 70 47 -92 -80 -86 94 -96 -66 0
-115 -100 0
-115 -86 0
-115 -84 0
-115 52 0
-115 -48 0
-115 -64 0
-115 23 0
-115 -57 0
-115 -80 0
-115 -22 0
115 100 86 84 -52 48 64 -23 57 80 22 0
-116 26 0
-116 81 0
-116 57 0
-116 58 0
-116 36 0
-116 85 0
-116 31 0
-116 61 0
-116 93 0
-116 84 0
116 -26 -81 -57 -58 -36 -85 -31 -61 -93 -84 0
-117 -20 0
-117 -4 0
-117 14 0
-117 -32 0
-117 56 0
-117 -77 0
-117 -11 0
-117 13 0
-117 18 0
-117 -98 0
117 20 4 -14 32 -56 77 11 -13 -18 98 0
-118 31 0
-118 77 0
-118 29 0
-118 5 0
-118 19 0
-118 22 0
-118 -36 0
-118 -74 0
-118 -43 0
-118 -38 0
118 -31 -77 -29 -5 -19 -22 36 74 43 38 0
-119 11 0
-119 48 0
-119 -3 0
-119 -78 0
-119 23 0
-119 71 0
-119 -54 0
-119 -42 0
-119 97 0
-119 -51 0
119 -11 -48 3 78 -23 -71 54 42 -97 51 0
-120 18 0
-120 10 0
-120 58 0
-120 -67 0
-120 61 0
-120 -60 0
-120 100 0
-120 38 0
-120 5 0
-120 -42 0
120 -18 -10 -58 67 -61 60 -100 -38 -5 42 0
111 112 113 114 115 116 117 118 119 120 0
-121 88 0
-121 56 0
-121 -22 0
-121 -28 0
-121 -8 0
-121 49 0
-121 81 0
-121 -21 0
-121 -36 0
-121 -15 0
121 -88 -56 22 28 8 -49 -81 21 36 15 0
-122 10 0
-122 94 0
-122 -53 0
-122 -72 0
-122 21 0
-122 -16 0
-122 -91 0
-122 25 0
-122 38 0
-122 -11 0
122 -10 -94 53 72 -21 16 91 -25 -38 11 0
-123 69 0
-123 9 0
-123 84 0
-123 72 0
-123 95 0
-123 35 0
-123 85 0
-123 36 0
-123 43 0
-123 -87 0
123 -69 -9 -84 -72 -95 -35 -85 -36 -43 87 0
-124 27 0
-124 31 0
-124 -72 0
-124 33 0
-124 36 0
-124 -74 0
-124 18 0
-124 -9 0
-124 87 0
-124 25 0
124 -27 -31 72 -33 -36 74 -18 9 -87 -25 0
-125 31 0
-125 12 0
-125 33 0
-125 52 0
-125 38 0
-125 13 0
-125 56 0
-125 86 0
-125 48 0
-125 73 0
125 -31 -12 -33 -52 -38 -13 -56 -86 -48 -73 0
-126 -66 0
-126 -20 0
-126 -37 0
-126 93 0
-126 74 0
-126 -2 0
-126 -27 0
-126 -83 0
-126 53 0
-126 -22 0
126 66 20 37 -93 -74 2 27 83 -53 22 0
-127 -55 0
-127 -25 0
-127 86 0
-127 -71 0
-127 -37 0
-127 -52 0
-127 30 0
-127 -43 0
-127 -48 0
-127 18 0
127 55 25 -86 71 37 52 -30 43 48 -18 0
-128 -64 0
-128 21 0
-128 39 0
-128 -80 0
-128 34 0
-128 -63 0
-128 61 0
-128 -88 0
-128 -50 0
-128 75 0
128 64 -21 -39 80 -34 63 -61 88 50 -75 0
-129 69 0
-129 -23 0
-129 -77 0
-129 2 0
-129 6 0
-129 -51 0
-129 59 0
-129 4 0
-129 80 0
-129 78 0
129 -69 23 77 -2 -6 51 -59 -4 -80 -78 0
-130 64 0
-130 -5 0
-130 56 0
-130 41 0
-130 24 0
-130 -23 0
-130 -92 0
-130 -70 0
-130 31 0
-130 -73 0
130 -64 5 -56 -41 -24 23 92 70 -31 73 0
121 122 123 124 125 126 127 128 129 130 0
-131 4 0
-131 43 0
-131 57 0
-131 27 0
-131 69 0
-131 14 0
-131 35 0
-131 -45 0
-131 -19 0
-131 73 0
131 -4 -43 -57 -27 -69 -14 -35 45 19 -73 0
-132 41 0
-132 63 0
-132 34 0
-132 85 0
-132 40 0
-132 38 0
-132 84 0
-132 96 0
-132 -14 0
-132 55 0
132 -41 -63 -34 -85 -40 -38 -84 -96 14 -55 0
-133 48 0
-133 -91 0
-133 37 0
-133 90 0
-133 46 0
-133 16 0
-133 -80 0
-133 92 0
-133 -77 0
-133 24 0
133 -48 91 -37 -90 -46 -16 80 -92 77 -24 0
-134 -47 0
-134 10 0
-134 19 0
-134 61 0
-134 -83 0
-134 59 0
-134 -39 0
-134 81 0
-134 27 0
-134 1 0
134 47 -10 -19 -61 83 -59 39 -81 -27 -1 0
-135 14 0
-135 60 0
-135 -72 0
-135 -76 0
-135 -73 0
-135 -81 0
-135 5 0
-135 -29 0
-135 -32 0
-135 -30 0
135 -14 -60 72 76 73 81 -5 29 32 30 0
-136 67 0
-136 -95 0
-136 -53 0
-136 -31 0
-136 17 0
-136 -61 0
-136 -45 0
-136 -62 0
-136 56 0
-136 57 0
136 -67 95 53 31 -17 61 45 62 -56 -57 0
-137 -62 0
-137 5 0
-137 24 0
-137 90 0
-137 -59 0
-137 46 0
-137 77 0
-137 19 0
-137 51 0
-137 -29 0
137 62 -5 -24 -90 59 -46 -77 -19 -51 29 0
-138 2 0
-138 -26 0
-138 -1 0
-138 -14 0
-138 81 0
-138 -69 0
-138 -44 0
-138 96 0
-138 85 0
-138 -83 0
138 -2 26 1 14 -81 69 44 -96 -85 83 0
-139 20 0
-139 -70 0
-139 -54 0
-139 75 0
-139 99 0
-139 93 0
-139 -84 0
-139 15 0
-139 13 0
-139 19 0
139 -20 70 54 -75 -99 -93 84 -15 -13 -19 0
-140 -43 0
-140 -15 0
-140 -88 0
-140 73 0
-140 12 0
-140 -87 0
-140 -28 0
-140 61 0
-140 42 0
-140 -40 0
140 43 15 88 -73 -12 87 28 -61 -42 40 0
131 132 133 134 135 136 137 138 139 140 0
-141 90 0
-141 -47 0
-141 -26 0
-141 87 0
-141 65 0
-141 -20 0
-141 -73 0
-141 8 0
-141 30 0
-141 -82 0
141 -90 47 26 -87 -65 20 73 -8 -30 82 0
-142 94 0
-142 -23 0
-142 -16 0
-142 31 0
-142 61 0
-142 88 0
-142 3 0
-142 -17 0
-142 -39 0
-142 -75 0
142 -94 23 16 -31 -61 -88 -3 17 39 75 0
-143 99 0
-143 89 0
-143 3 0
-143 41 0
-143 64 0
-143 -32 0
-143 -18 0
-143 31 0
-143 60 0
-143 -33 0
143 -99 -89 -3 -41 -64 32 18 -31 -60 33 0
-144 -24 0
-144 48 0
-144 88 0
-144 -8 0
-144 -7 0
-144 23 0
-144 25 0
-144 -4 0
-144 94 0
-144 -43 0
144 24 -48 -88 8 7 -23 -25 4 -94 43 0
-145 84 0
-145 -41 0
-145 48 0
-145 21 0
-145 -90 0
-145 42 0
-145 -65 0
-145 93 0
-145 -100 0
-145 43 0
145 -84 41 -48 -21 90 -42 65 -93 100 -43 0
-146 -8 0
-146 41 0
-146 60 0
-146 -84 0
-146 -10 0
-146 -36 0
-146 -58 0
-146 -28 0
-146 -72 0
-146 99 0
146 8 -41 -60 84 10 36 58 28 72 -99 0
-147 50 0
-147 -30 0
-147 20 0
-147 22 0
-147 4 0
-147 11 0
-147 96 0
-147 -23 0
-147 -14 0
-147 42 0
147 -50 30 -20 -22 -4 -11 -96 23 14 -42 0
-148 -19 0
-148 2 0
-148 -52 0
-148 -86 0
-148 -97 0
-148 -47 0
-148 89 0
-148 90 0
-148 -55 0
-148 -11 0
148 19 -2 52 86 97 47 -89 -90 55 11 0
-149 83 0
-149 -96 0
-149 60 0
-149 15 0
-149 34 0
-149 93 0
-149 -21 0
-149 -54 0
-149 -92 0
-149 82 0
149 -83 96 -60 -15 -34 -93 21 54 92 -82 0
-150 -80 0
-150 -47 0
-150 -66 0
-150 50 0
-150 12 0
-150 52 0
-150 85 0
-150 -69 0
-150 -75 0
-150 88 0
150 80 47 66 -50 -12 -52 -85 69 75 -88 0
141 142 143 144 145 146 147 148 149 150 0
-151 1 0
-151 -97 0
-151 -23 0
-151 -73 0
-151 -52 0
-151 -9 0
-151 -37 0
-151 98 0
-151 -53 0
-151 -41 0
151 -1 97 23 73 52 9 37 -98 53 41 0
-152 86 0
-152 -49 0
-152 32 0
-152 19 0
-152 93 0
-152 50 0
-152 77 0
-152 -1 0
-152 -71 0
-152 -40 0
152 -86 49 -32 -19 -93 -50 -77 1 71 40 0
-153 -75 0
-153 11 0
-153 -76 0
-153 54 0
-153 -58 0
-153 -36 0
-153 80 0
-153 -68 0
-153 63 0
-153 -73 0
153 75 -11 76 -54 58 36 -80 68 -63 73 0
-154 -19 0
-154 -90 0
-154 -72 0
-154 -44 0
-154 -89 0
-154 -92 0
-154 -85 0
-154 -73 0
-154 -42 0
-154 71 0
154 19 90 72 44 89 92 85 73 42 -71 0
-155 19 0
-155 -12 0
-155 -95 0
-155 57 0
-155 20 0
-155 41 0
-155 31 0
-155 -17 0
-155 -33 0
-155 -6 0
155 -19 12 95 -57 -20 -41 -31 17 33 6 0
-156 10 0
-156 59 0
-156 -58 0
-156 -24 0
-156 65 0
-156 2 0
-156 -37 0
-156 -30 0
-156 27 0
-156 -8 0
156 -10 -59 58 24 -65 -2 37 30 -27 8 0
-157 79 0
-157 -44 0
-157 77 0
-157 67 0
-157 64 0
-157 -16 0
-157 -54 0
-157 3 0
-157 -47 0
-157 68 0
157 -79 44 -77 -67 -64 16 54 -3 47 -68 0
-158 95 0
-158 13 0
-158 27 0
-158 -81 0
-158 -20 0
-158 -85 0
-158 -46 0
-158 73 0
-158 -80 0
-158 84 0
158 -95 -13 -27 81 20 85 46 -73 80 -84 0
-159 -2 0
-159 70 0
-159 45 0
-159 -30 0
-159 -18 0
-159 4 0
-159 97 0
-159 -49 0
-159 -77 0
-159 62 0
159 2 -70 -45 30 18 -4 -97 49 77 -62 0
-160 5 0
-160 -60 0
-160 59 0
-160 73 0
-160 -81 0
-160 -8 0
-160 -82 0
-160 -19 0
-160 -74 0
-160 -70 0
160 -5 60 -59 -73 81 8 82 19 74 70 0
151 152 153 154 155 156 157 158 159 160 0
-161 79 0
-161 -77 0
-161 90 0
-161 -75 0
-161 -89 0
-161 40 0
-161 -36 0
-161 -78 0
-161 24 0
-161 96 0
161 -79 77 -90 75 89 -40 36 78 -24 -96 0
-162 37 0
-162 52 0
-162 46 0
-162 -12 0
-162 -50 0
-162 19 0
-162 91 0
-162 5 0
-162 43 0
-162 -87 0
162 -37 -52 -46 12 50 -19 -91 -5 -43 87 0
-163 8 0
-163 40 0
-163 69 0
-163 -89 0
-163 95 0
-163 -52 0
-163 14 0
-163 -9 0
-163 -24 0
-163 -46 0
163 -8 -40 -69 89 -95 52 -14 9 24 46 0
-164 84 0
-164 -71 0
-164 93 0
-164 -14 0
-164 -6 0
-164 -22 0
-164 70 0
-164 56 0
-164 44 0
-164 -92 0
164 -84 71 -93 14 6 22 -70 -56 -44 92 0
-165 -53 0
-165 21 0
-165 -39 0
-165 -22 0
-165 26 0
-165 29 0
-165 66 0
-165 -62 0
-165 88 0
-165 7 0
165 53 -21 39 22 -26 -29 -66 62 -88 -7 0
-166 -26 0
-166 79 0
-166 21 0
-166 48 0
-166 71 0
-166 27 0
-166 34 0
-166 50 0
-166 76 0
-166 93 0
166 26 -79 -21 -48 -71 -27 -34 -50 -76 -93 0
-167 33 0
-167 58 0
-167 98 0
-167 -63 0
-167 -24 0
-167 -54 0
-167 -64 0
-167 100 0
-167 -68 0
-167 95 0
167 -33 -58 -98 63 24 54 64 -100 68 -95 0
-168 -24 0
-168 6 0
-168 -70 0
-168 35 0
-168 -60 0
-168 41 0
-168 -7 0
-168 -16 0
-168 86 0
-168 33 0
168 24 -6 70 -35 60 -41 7 16 -86 -33 0
-169 -13 0
-169 19 0
-169 76 0
-169 80 0
-169 100 0
-169 -18 0
-169 -12 0
-169 -21 0
-169 62 0
-169 -82 0
169 13 -19 -76 -80 -100 18 12 21 -62 82 0
-170 -25 0
-170 -38 0
-170 -58 0
-170 -64 0
-170 -19 0
-170 26 0
-170 8 0
-170 -43 0
-170 -78 0
-170 -51 0
170 25 38 58 64 19 -26 -8 43 78 51 0
161 162 163 164 165 166 167 168 169 170 0
-171 -10 0
-171 -18 0
-171 60 0
-171 -40 0
-171 -50 0
-171 -51 0
-171 49 0
-171 47 0
-171 16 0
-171 -46 0
171 10 18 -60 40 50 51 -49 -47 -16 46 0
-172 -8 0
-172 -97 0
-172 96 0
-172 -76 0
-172 -38 0
-172 -7 0
-172 5 0
-172 -11 0
-172 -18 0
-172 35 0
172 8 97 -96 76 38 7 -5 11 18 -35 0
-173 18 0
-173 59 0
-173 74 0
-173 -83 0
-173 70 0
-173 -1 0
-173 28 0
-173 -82 0
-173 16 0
-173 67 0
173 -18 -59 -74 83 -70 1 -28 82 -16 -67 0
-174 69 0
-174 94 0
-174 83 0
-174 -85 0
-174 5 0
-174 -86 0
-174 31 0
-174 -6 0
-174 -96 0
-174 42 0
174 -69 -94 -83 85 -5 86 -31 6 96 -42 0
-175 -29 0
-175 -38 0
-175 -45 0
-175 5 0
-175 82 0
-175 -69 0
-175 -51 0
-175 -17 0
-175 -21 0
-175 62 0
175 29 38 45 -5 -82 69 51 17 21 -62 0
-176 -51 0
-176 47 0
-176 72 0
-176 -41 0
-176 -18 0
-176 -6 0
-176 -50 0
-176 -82 0
-176 33 0
-176 -92 0
176 51 -47 -72 41 18 6 50 82 -33 92 0
-177 31 0
-177 -3 0
-177 -71 0
-177 40 0
-177 -5 0
-177 -57 0
-177 -77 0
-177 33 0
-177 49 0
-177 -87 0
177 -31 3 71 -40 5 57 77 -33 -49 87 0
-178 -74 0
-178 -12 0
-178 -68 0
-178 92 0
-178 70 0
-178 29 0
-178 -82 0
-178 -24 0
-178 31 0
-178 -71 0
178 74 12 68 -92 -70 -29 82 24 -31 71 0
-179 -65 0
-179 48 0
-179 -58 0
-179 71 0
-179 -50 0
-179 -37 0
-179 10 0
-179 -13 0
-179 83 0
-179 93 0
179 65 -48 58 -71 50 37 -10 13 -83 -93 0
-180 -97 0
-180 -98 0
-180 23 0
-180 -21 0
-180 9 0
-180 46 0
-180 44 0
-180 8 0
-180 -68 0
-180 -87 0
180 97 98 -23 21 -9 -46 -44 -8 68 87 0
171 172 173 174 175 176 177 178 179 180 0
-181 75 0
-181 14 0
-181 -94 0
-181 -85 0
-181 -78 0
-181 -31 0
-181 41 0
-181 91 0
-181 -66 0
-181 -34 0
181 -75 -14 94 85 78 31 -41 -91 66 34 0
-182 75 0
-182 55 0
-182 45 0
-182 5 0
-182 -18 0
-182 27 0
-182 -73 0
-182 -17 0
-182 -21 0
-182 41 0
182 -75 -55 -45 -5 18 -27 73 17 21 -41 0
-183 -60 0
-183 97 0
-183 10 0
-183 -21 0
-183 14 0
-183 53 0
-183 98 0
-183 12 0
-183 38 0
-183 -44 0
183 60 -97 -10 21 -14 -53 -98 -12 -38 44 0
-184 -52 0
-184 78 0
-184 -3 0
-184 -27 0
-184 74 0
-184 -56 0
-184 1 0
-184 -43 0
-184 33 0
-184 66 0
184 52 -78 3 27 -74 56 -1 43 -33 -66 0
-185 -5 0
-185 -62 0
-185 -25 0
-185 -22 0
-185 12 0
-185 45 0
-185 -75 0
-185 51 0
-185 15 0
-185 -83 0
185 5 62 25 22 -12 -45 75 -51 -15 83 0
-186 -28 0
-186 34 0
-186 -36 0
-186 -60 0
-186 72 0
-186 -44 0
-186 -3 0
-186 82 0
-186 -84 0
-186 93 0
186 28 -34 36 60 -72 44 3 -82 84 -93 0
-187 -81 0
-187 -24 0
-187 58 0
-187 50 0
-187 -29 0
-187 -33 0
-187 13 0
-187 -52 0
-187 -61 0
-187 89 0
187 81 24 -58 -50 29 33 -13 52 61 -89 0
-188 25 0
-188 78 0
-188 81 0
-188 -15 0
-188 7 0
-188 -90 0
-188 -27 0
-188 -56 0
-188 86 0
-188 -3 0
188 -25 -78 -81 15 -7 90 27 56 -86 3 0
-189 -79 0
-189 98 0
-189 -55 0
-189 72 0
-189 33 0
-189 -69 0
-189 5 0
-189 -7 0
-189 -25 0
-189 -97 0
189 79 -98 55 -72 -33 69 -5 7 25 97 0
-190 57 0
-190 -87 0
-190 -41 0
-190 13 0
-190 -11 0
-190 78 0
-190 7 0
-190 70 0
-190 -51 0
-190 79 0
190 -57 87 41 -13 11 -78 -7 -70 51 -79 0
181 182 183 184 185 186 187 188 189 190 0
-191 31 0
-191 2 0
-191 -43 0
-191 27 0
-191 67 0
-191 -26 0
-191 49 0
-191 -17 0
-191 -82 0
-191 60 0
191 -31 -2 43 -27 -67 26 -49 17 82 -60 0
-192 72 0
-192 15 0
-192 -51 0
-192 -38 0
-192 39 0
-192 -85 0
-192 -76 0
-192 -63 0
-192 -17 0
-192 -24 0
192 -72 -15 51 38 -39 85 76 63 17 24 0
-193 33 0
-193 71 0
-193 51 0
-193 -69 0
-193 -72 0
-193 40 0
-193 -64 0
-193 36 0
-193 49 0
-193 -39 0
193 -33 -71 -51 69 72 -40 64 -36 -49 39 0
-194 -65 0
-194 -26 0
-194 -92 0
-194 -87 0
-194 -93 0
-194 -14 0
-194 -97 0
-194 -61 0
-194 82 0
-194 43 0
194 65 26 92 87 93 14 97 61 -82 -43 0
-195 -90 0
-195 -82 0
-195 -61 0
-195 -51 0
-195 25 0
-195 75 0
-195 1 0
-195 97 0
-195 -9 0
-195 87 0
195 90 82 61 51 -25 -75 -1 -97 9 -87 0
-196 100 0
-196 -4 0
-196 -85 0
-196 -63 0
-196 -52 0
-196 -25 0
-196 37 0
-196 -93 0
-196 67 0
-196 45 0
196 -100 4 85 63 52 25 -37 93 -67 -45 0
-197 38 0
-197 53 0
-197 23 0
-197 96 0
-197 -93 0
-197 -74 0
-197 -65 0
-197 -54 0
-197 -57 0
-197 6 0
197 -38 -53 -23 -96 93 74 65 54 57 -6 0
-198 -70 0
-198 17 0
-198 64 0
-198 -89 0
-198 61 0
-198 24 0
-198 29 0
-198 93 0
-198 -54 0
-198 -25 0
198 70 -17 -64 89 -61 -24 -29 -93 54 25 0
-199 40 0
-199 49 0
-199 -90 0
-199 -64 0
-199 71 0
-199 81 0
-199 -44 0
-199 -37 0
-199 -19 0
-199 -23 0
199 -40 -49 90 64 -71 -81 44 37 19 23 0
-200 72 0
-200 89 0
-200 -16 0
-200 -85 0
-200 -3 0
-200 5 0
-200 53 0
-200 -20 0
-200 -1 0
-200 97 0
200 -72 -89 16 85 3 -5 -53 20 1 -97 0
191 192 193 194 195 196 197 198 199 200 0
